c File: flat50_3_0.col
c
c SOURCE: Joseph Culberson (joe@cs.ualberta.ca)
c DESCRIPTION: Quasi-random coloring problem
c              generated with flatness = 0
c                             probability = 0.139
c                             known coloring = 3
c                             random seed = 1928
c              Creation Date:  Tue Jun  9 12:21:23 1998
c Maximum degree = 8 Minimum degree = 1
c p edge 50 115
c cnf created by edge2cnf
p cnf 150 545
-1 -2 0
-1 -3 0
-2 -3 0
1 2 3 0
-4 -5 0
-4 -6 0
-5 -6 0
4 5 6 0
-7 -8 0
-7 -9 0
-8 -9 0
7 8 9 0
-10 -11 0
-10 -12 0
-11 -12 0
10 11 12 0
-13 -14 0
-13 -15 0
-14 -15 0
13 14 15 0
-16 -17 0
-16 -18 0
-17 -18 0
16 17 18 0
-19 -20 0
-19 -21 0
-20 -21 0
19 20 21 0
-22 -23 0
-22 -24 0
-23 -24 0
22 23 24 0
-25 -26 0
-25 -27 0
-26 -27 0
25 26 27 0
-28 -29 0
-28 -30 0
-29 -30 0
28 29 30 0
-31 -32 0
-31 -33 0
-32 -33 0
31 32 33 0
-34 -35 0
-34 -36 0
-35 -36 0
34 35 36 0
-37 -38 0
-37 -39 0
-38 -39 0
37 38 39 0
-40 -41 0
-40 -42 0
-41 -42 0
40 41 42 0
-43 -44 0
-43 -45 0
-44 -45 0
43 44 45 0
-46 -47 0
-46 -48 0
-47 -48 0
46 47 48 0
-49 -50 0
-49 -51 0
-50 -51 0
49 50 51 0
-52 -53 0
-52 -54 0
-53 -54 0
52 53 54 0
-55 -56 0
-55 -57 0
-56 -57 0
55 56 57 0
-58 -59 0
-58 -60 0
-59 -60 0
58 59 60 0
-61 -62 0
-61 -63 0
-62 -63 0
61 62 63 0
-64 -65 0
-64 -66 0
-65 -66 0
64 65 66 0
-67 -68 0
-67 -69 0
-68 -69 0
67 68 69 0
-70 -71 0
-70 -72 0
-71 -72 0
70 71 72 0
-73 -74 0
-73 -75 0
-74 -75 0
73 74 75 0
-76 -77 0
-76 -78 0
-77 -78 0
76 77 78 0
-79 -80 0
-79 -81 0
-80 -81 0
79 80 81 0
-82 -83 0
-82 -84 0
-83 -84 0
82 83 84 0
-85 -86 0
-85 -87 0
-86 -87 0
85 86 87 0
-88 -89 0
-88 -90 0
-89 -90 0
88 89 90 0
-91 -92 0
-91 -93 0
-92 -93 0
91 92 93 0
-94 -95 0
-94 -96 0
-95 -96 0
94 95 96 0
-97 -98 0
-97 -99 0
-98 -99 0
97 98 99 0
-100 -101 0
-100 -102 0
-101 -102 0
100 101 102 0
-103 -104 0
-103 -105 0
-104 -105 0
103 104 105 0
-106 -107 0
-106 -108 0
-107 -108 0
106 107 108 0
-109 -110 0
-109 -111 0
-110 -111 0
109 110 111 0
-112 -113 0
-112 -114 0
-113 -114 0
112 113 114 0
-115 -116 0
-115 -117 0
-116 -117 0
115 116 117 0
-118 -119 0
-118 -120 0
-119 -120 0
118 119 120 0
-121 -122 0
-121 -123 0
-122 -123 0
121 122 123 0
-124 -125 0
-124 -126 0
-125 -126 0
124 125 126 0
-127 -128 0
-127 -129 0
-128 -129 0
127 128 129 0
-130 -131 0
-130 -132 0
-131 -132 0
130 131 132 0
-133 -134 0
-133 -135 0
-134 -135 0
133 134 135 0
-136 -137 0
-136 -138 0
-137 -138 0
136 137 138 0
-139 -140 0
-139 -141 0
-140 -141 0
139 140 141 0
-142 -143 0
-142 -144 0
-143 -144 0
142 143 144 0
-145 -146 0
-145 -147 0
-146 -147 0
145 146 147 0
-148 -149 0
-148 -150 0
-149 -150 0
148 149 150 0
-58 -1 0
-59 -2 0
-60 -3 0
-112 -1 0
-113 -2 0
-114 -3 0
-136 -1 0
-137 -2 0
-138 -3 0
-145 -1 0
-146 -2 0
-147 -3 0
-55 -4 0
-56 -5 0
-57 -6 0
-70 -4 0
-71 -5 0
-72 -6 0
-85 -4 0
-86 -5 0
-87 -6 0
-94 -4 0
-95 -5 0
-96 -6 0
-130 -4 0
-131 -5 0
-132 -6 0
-52 -7 0
-53 -8 0
-54 -9 0
-61 -7 0
-62 -8 0
-63 -9 0
-73 -7 0
-74 -8 0
-75 -9 0
-85 -7 0
-86 -8 0
-87 -9 0
-136 -7 0
-137 -8 0
-138 -9 0
-145 -7 0
-146 -8 0
-147 -9 0
-88 -10 0
-89 -11 0
-90 -12 0
-115 -10 0
-116 -11 0
-117 -12 0
-121 -10 0
-122 -11 0
-123 -12 0
-79 -13 0
-80 -14 0
-81 -15 0
-109 -13 0
-110 -14 0
-111 -15 0
-133 -13 0
-134 -14 0
-135 -15 0
-139 -13 0
-140 -14 0
-141 -15 0
-85 -16 0
-86 -17 0
-87 -18 0
-91 -16 0
-92 -17 0
-93 -18 0
-94 -16 0
-95 -17 0
-96 -18 0
-97 -16 0
-98 -17 0
-99 -18 0
-106 -19 0
-107 -20 0
-108 -21 0
-109 -19 0
-110 -20 0
-111 -21 0
-142 -19 0
-143 -20 0
-144 -21 0
-145 -19 0
-146 -20 0
-147 -21 0
-67 -22 0
-68 -23 0
-69 -24 0
-112 -22 0
-113 -23 0
-114 -24 0
-118 -22 0
-119 -23 0
-120 -24 0
-121 -22 0
-122 -23 0
-123 -24 0
-79 -25 0
-80 -26 0
-81 -27 0
-85 -25 0
-86 -26 0
-87 -27 0
-91 -25 0
-92 -26 0
-93 -27 0
-94 -25 0
-95 -26 0
-96 -27 0
-121 -25 0
-122 -26 0
-123 -27 0
-124 -25 0
-125 -26 0
-126 -27 0
-127 -25 0
-128 -26 0
-129 -27 0
-133 -25 0
-134 -26 0
-135 -27 0
-58 -28 0
-59 -29 0
-60 -30 0
-70 -28 0
-71 -29 0
-72 -30 0
-91 -28 0
-92 -29 0
-93 -30 0
-109 -28 0
-110 -29 0
-111 -30 0
-61 -31 0
-62 -32 0
-63 -33 0
-118 -31 0
-119 -32 0
-120 -33 0
-124 -31 0
-125 -32 0
-126 -33 0
-148 -31 0
-149 -32 0
-150 -33 0
-91 -34 0
-92 -35 0
-93 -36 0
-100 -34 0
-101 -35 0
-102 -36 0
-118 -34 0
-119 -35 0
-120 -36 0
-130 -34 0
-131 -35 0
-132 -36 0
-139 -34 0
-140 -35 0
-141 -36 0
-148 -34 0
-149 -35 0
-150 -36 0
-55 -37 0
-56 -38 0
-57 -39 0
-58 -37 0
-59 -38 0
-60 -39 0
-100 -37 0
-101 -38 0
-102 -39 0
-55 -40 0
-56 -41 0
-57 -42 0
-76 -40 0
-77 -41 0
-78 -42 0
-97 -40 0
-98 -41 0
-99 -42 0
-103 -40 0
-104 -41 0
-105 -42 0
-133 -40 0
-134 -41 0
-135 -42 0
-148 -40 0
-149 -41 0
-150 -42 0
-55 -43 0
-56 -44 0
-57 -45 0
-58 -43 0
-59 -44 0
-60 -45 0
-76 -43 0
-77 -44 0
-78 -45 0
-142 -43 0
-143 -44 0
-144 -45 0
-61 -46 0
-62 -47 0
-63 -48 0
-76 -46 0
-77 -47 0
-78 -48 0
-88 -46 0
-89 -47 0
-90 -48 0
-109 -46 0
-110 -47 0
-111 -48 0
-52 -49 0
-53 -50 0
-54 -51 0
-94 -49 0
-95 -50 0
-96 -51 0
-136 -49 0
-137 -50 0
-138 -51 0
-142 -49 0
-143 -50 0
-144 -51 0
-112 -52 0
-113 -53 0
-114 -54 0
-115 -52 0
-116 -53 0
-117 -54 0
-124 -52 0
-125 -53 0
-126 -54 0
-133 -52 0
-134 -53 0
-135 -54 0
-109 -55 0
-110 -56 0
-111 -57 0
-121 -58 0
-122 -59 0
-123 -60 0
-130 -58 0
-131 -59 0
-132 -60 0
-130 -61 0
-131 -62 0
-132 -63 0
-112 -64 0
-113 -65 0
-114 -66 0
-124 -64 0
-125 -65 0
-126 -66 0
-127 -64 0
-128 -65 0
-129 -66 0
-124 -67 0
-125 -68 0
-126 -69 0
-145 -67 0
-146 -68 0
-147 -69 0
-106 -70 0
-107 -71 0
-108 -72 0
-148 -70 0
-149 -71 0
-150 -72 0
-103 -76 0
-104 -77 0
-105 -78 0
-109 -76 0
-110 -77 0
-111 -78 0
-118 -76 0
-119 -77 0
-120 -78 0
-103 -79 0
-104 -80 0
-105 -81 0
-118 -79 0
-119 -80 0
-120 -81 0
-139 -79 0
-140 -80 0
-141 -81 0
-142 -79 0
-143 -80 0
-144 -81 0
-109 -82 0
-110 -83 0
-111 -84 0
-133 -82 0
-134 -83 0
-135 -84 0
-112 -85 0
-113 -86 0
-114 -87 0
-127 -85 0
-128 -86 0
-129 -87 0
-139 -85 0
-140 -86 0
-141 -87 0
-109 -88 0
-110 -89 0
-111 -90 0
-127 -88 0
-128 -89 0
-129 -90 0
-118 -91 0
-119 -92 0
-120 -93 0
-121 -91 0
-122 -92 0
-123 -93 0
-127 -91 0
-128 -92 0
-129 -93 0
-112 -94 0
-113 -95 0
-114 -96 0
-118 -94 0
-119 -95 0
-120 -96 0
-130 -94 0
-131 -95 0
-132 -96 0
-142 -94 0
-143 -95 0
-144 -96 0
-115 -97 0
-116 -98 0
-117 -99 0
-130 -97 0
-131 -98 0
-132 -99 0
